c SAT Generator for power-law distributed variable frequencies
c -g u -v 20 -c 91 -k 3 -p 2.750000 -b 3.200000 -f /home/schmidt/Devel/ni-kop-sat/data/ensemble/ruf20-91/ruf20-91-583 -u 1 -U 1 -s 2383618433
p cnf 20 91
-9 -18 19 0
-7 17 20 0
-8 -16 20 0
3 4 -9 0
12 -15 20 0
1 -3 -10 0
-2 -10 20 0
4 13 14 0
10 -11 -18 0
-4 7 -9 0
6 -7 -19 0
2 -10 15 0
-1 -3 8 0
3 -5 -12 0
-9 14 19 0
-4 -5 16 0
-9 14 20 0
5 -13 -20 0
16 18 -19 0
-1 8 15 0
-8 -10 -20 0
-4 19 20 0
3 -6 20 0
5 7 13 0
3 7 10 0
-3 7 -9 0
2 -5 11 0
-9 14 -17 0
-4 6 -13 0
-11 12 -18 0
7 9 19 0
10 -16 -18 0
-3 -8 -16 0
-1 -5 9 0
-4 10 -19 0
-1 7 17 0
7 12 19 0
1 -9 17 0
7 -11 12 0
-3 10 -19 0
4 -7 -12 0
13 16 -19 0
10 12 -14 0
-7 12 -15 0
2 8 -18 0
6 11 13 0
-13 -16 19 0
2 7 9 0
2 8 19 0
-7 -8 16 0
-10 11 -15 0
-2 8 -12 0
6 -7 -17 0
-10 -13 14 0
1 -5 -18 0
-7 9 -14 0
-4 -16 -17 0
-4 -9 17 0
2 -4 14 0
2 6 -12 0
4 6 16 0
-1 4 7 0
7 -8 17 0
4 -12 -17 0
-1 -13 14 0
3 -13 19 0
4 10 -19 0
-5 -10 -17 0
12 -15 -18 0
2 -16 20 0
3 7 -14 0
4 12 -20 0
-6 11 18 0
7 12 14 0
3 -13 15 0
1 -4 15 0
4 13 19 0
-1 7 8 0
-1 2 13 0
11 -14 -16 0
-2 -17 18 0
-6 -17 -19 0
-8 17 18 0
-5 9 -10 0
12 -13 -14 0
13 -14 -15 0
3 6 7 0
-7 13 -15 0
-2 17 18 0
4 7 -13 0
-8 -15 16 0
